
Gurobi 11.0.3 (linux64) logging started Fri Nov 22 05:18:15 2024

Set parameter LogFile to value "/home/yihong/Coding/OR_SUC/SUC_results_bigM100000_thread4/case24_ieee_rts_theta0.1_epsilon0.05_gurobi_seed950000_num_gen100_N_WDR100_load_scaling_factor1_exact_T8quadra_cost.txt"
Set parameter TimeLimit to value 3600
Gurobi Optimizer version 11.0.3 build v11.0.3rc0 (linux64 - "Ubuntu 20.04.6 LTS")

CPU model: AMD EPYC 7532 32-Core Processor, instruction set [SSE2|AVX|AVX2]
Thread count: 64 physical cores, 128 logical processors, using up to 4 threads

Optimize a model with 18955 rows, 10121 columns and 440954 nonzeros
Model fingerprint: 0xbb71cec0
Model has 800 quadratic constraints
Variable types: 9221 continuous, 900 integer (900 binary)
Coefficient statistics:
  Matrix range     [2e-04, 1e+05]
  QMatrix range    [2e-03, 8e-03]
  QLMatrix range   [3e-01, 6e+01]
  Objective range  [1e+00, 1e+00]
  Bounds range     [1e+00, 1e+00]
  RHS range        [1e+00, 1e+05]
Presolve removed 15455 rows and 4337 columns
Presolve time: 0.14s
Presolved: 3500 rows, 5784 columns, 19800 nonzeros
Presolved model has 800 quadratic constraint(s)
Variable types: 4909 continuous, 875 integer (875 binary)

Root relaxation: objective 9.400979e+03, 2662 iterations, 0.04 seconds (0.05 work units)

    Nodes    |    Current Node    |     Objective Bounds      |     Work
 Expl Unexpl |  Obj  Depth IntInf | Incumbent    BestBd   Gap | It/Node Time

     0     0 9400.97935    0    7          - 9400.97935      -     -    0s
     0     0 146709.089    0  217          - 146709.089      -     -    0s
     0     0 147138.255    0  216          - 147138.255      -     -    0s
     0     0 246716.865    0  146          - 246716.865      -     -    0s
     0     0 246779.752    0  146          - 246779.752      -     -    0s
     0     0 246910.839    0  116          - 246910.839      -     -    0s
     0     0 246953.635    0  113          - 246953.635      -     -    0s
     0     0 247299.873    0  109          - 247299.873      -     -    0s
     0     0 247299.873    0  109          - 247299.873      -     -    0s
     0     2 247299.873    0  109          - 247299.873      -     -    0s
H  143   155                    249700.29929 247643.696  0.82%  13.0    1s
*  143   155              43    249700.29929 247643.696  0.82%  13.0    1s
H  257   238                    248447.55810 247643.696  0.32%  12.5    1s
*  257   238              60    248447.55810 247643.696  0.32%  12.5    1s

Cutting planes:
  Gomory: 80
  Implied bound: 227
  MIR: 79
  Flow cover: 72
  RLT: 1

Explored 302 nodes (10489 simplex iterations) in 1.53 seconds (1.78 work units)
Thread count was 4 (of 128 available processors)

Solution count 3: 248448 248448 249700 

Optimal solution found (tolerance 1.00e-03)
Warning: max constraint violation (9.9619e-07) exceeds tolerance
Best objective 2.484475580988e+05, best bound 2.482295215621e+05, gap 0.0878%
